<?xml version = "1.0" standalone="yes"?>
<!-- This file has been generated by DOcplex version 2.23.222  -->
<CPLEXSolution version="1.0">
 <header
   problemName="CVRP"
   objectiveValue="6770.7"
  />
 <variables>
  <variable name="x_0_1" index="0" value="1.00000"/>
  <variable name="x_0_5" index="4" value="1.00000"/>
  <variable name="x_0_7" index="6" value="1.00000"/>
  <variable name="x_0_10" index="9" value="1.00000"/>
  <variable name="x_0_11" index="10" value="1.00000"/>
  <variable name="x_0_13" index="12" value="1.00000"/>
  <variable name="x_1_4" index="16" value="1.00000"/>
  <variable name="x_2_8" index="33" value="1.00000"/>
  <variable name="x_3_0" index="39" value="1.00000"/>
  <variable name="x_4_6" index="57" value="1.00000"/>
  <variable name="x_5_2" index="67" value="1.00000"/>
  <variable name="x_6_0" index="78" value="1.00000"/>
  <variable name="x_7_9" index="99" value="1.00000"/>
  <variable name="x_8_0" index="104" value="1.00000"/>
  <variable name="x_9_3" index="120" value="1.00000"/>
  <variable name="x_10_0" index="130" value="1.00000"/>
  <variable name="x_11_12" index="154" value="1.00000"/>
  <variable name="x_12_0" index="156" value="1.00000"/>
  <variable name="x_13_0" index="169" value="1.00000"/>
  <variable name="u_1" index="182" value="4.00000"/>
  <variable name="u_2" index="183" value="8.00000"/>
  <variable name="u_3" index="184" value="27.00000"/>
  <variable name="u_4" index="185" value="17.00000"/>
  <variable name="u_5" index="186" value="3.00000"/>
  <variable name="u_6" index="187" value="27.00000"/>
  <variable name="u_7" index="188" value="6.00000"/>
  <variable name="u_8" index="189" value="27.00000"/>
  <variable name="u_9" index="190" value="22.00000"/>
  <variable name="u_10" index="191" value="20.00000"/>
  <variable name="u_11" index="192" value="8.00000"/>
  <variable name="u_12" index="193" value="26.00000"/>
  <variable name="u_13" index="194" value="26.00000"/>
 </variables>
</CPLEXSolution>
